data/solutions/recovery/degenerate/moderate/flexible/degenerate_moderate_instance6/21.sol
Elapsed time: 0.05
Upper bound: 10585338.0
Planning weighted value: 63953487.0
C[0]=10585338.0
C[1]=10487186.0
C[2]=10446331.0
y[0]=1
y[1]=1
y[2]=1
y[3]=1
y[4]=0
y[5]=2
y[6]=2
y[7]=1
y[8]=1
y[9]=2
y[10]=0
y[11]=2
y[12]=1
y[13]=1
y[14]=2
y[15]=1
y[16]=1
y[17]=2
y[18]=0
y[19]=0
y[20]=0
y[21]=2
y[22]=0
y[23]=2
y[24]=0
y[25]=0
